

(declare-sort |c432_s| 0)
(declare-fun |c432_is| (|c432_s|) Bool)
(declare-fun |c432#0| (|c432_s|) Bool) 


(define-fun |c432_n CK| ((state |c432_s|)) Bool (|c432#0| state))
(declare-fun |c432#1| (|c432_s|) Bool) 


(define-fun |c432_n N1| ((state |c432_s|)) Bool (|c432#1| state))
(declare-fun |c432#2| (|c432_s|) Bool) 


(define-fun |c432_n N102| ((state |c432_s|)) Bool (|c432#2| state))
(declare-fun |c432#3| (|c432_s|) Bool) 


(define-fun |c432_n N105| ((state |c432_s|)) Bool (|c432#3| state))
(declare-fun |c432#4| (|c432_s|) Bool) 


(define-fun |c432_n N108| ((state |c432_s|)) Bool (|c432#4| state))
(declare-fun |c432#5| (|c432_s|) Bool) 


(define-fun |c432_n N11| ((state |c432_s|)) Bool (|c432#5| state))
(declare-fun |c432#6| (|c432_s|) Bool) 


(define-fun |c432_n N112| ((state |c432_s|)) Bool (|c432#6| state))
(declare-fun |c432#7| (|c432_s|) Bool) 


(define-fun |c432_n N115| ((state |c432_s|)) Bool (|c432#7| state))
(declare-fun |c432#8| (|c432_s|) Bool) 


(define-fun |c432_n N14| ((state |c432_s|)) Bool (|c432#8| state))
(declare-fun |c432#9| (|c432_s|) Bool) 


(define-fun |c432_n N17| ((state |c432_s|)) Bool (|c432#9| state))
(declare-fun |c432#10| (|c432_s|) Bool) 


(define-fun |c432_n N21| ((state |c432_s|)) Bool (|c432#10| state))
(define-fun |c432#11| ((state |c432_s|)) (_ BitVec 1) (bvnot (ite (|c432#1| state) #b1 #b0))) 
(declare-fun |c432#12| (|c432_s|) (_ BitVec 1)) 
(define-fun |c432#13| ((state |c432_s|)) (_ BitVec 1) (bvand (|c432#11| state) (|c432#12| state))) 
(define-fun |c432#14| ((state |c432_s|)) (_ BitVec 1) (bvnot (|c432#13| state))) 
(define-fun |c432#15| ((state |c432_s|)) (_ BitVec 1) (bvnot (ite (|c432#5| state) #b1 #b0))) 
(define-fun |c432#16| ((state |c432_s|)) (_ BitVec 1) (bvand (|c432#15| state) (ite (|c432#9| state) #b1 #b0))) 
(define-fun |c432#17| ((state |c432_s|)) (_ BitVec 1) (bvnot (|c432#16| state))) 
(define-fun |c432#18| ((state |c432_s|)) (_ BitVec 1) (bvand (|c432#14| state) (|c432#17| state))) 
(declare-fun |c432#19| (|c432_s|) (_ BitVec 1)) 
(define-fun |c432#20| ((state |c432_s|)) (_ BitVec 1) (bvnot (|c432#19| state))) 
(declare-fun |c432#21| (|c432_s|) (_ BitVec 1)) 
(define-fun |c432#22| ((state |c432_s|)) (_ BitVec 1) (bvand (|c432#20| state) (|c432#21| state))) 
(define-fun |c432#23| ((state |c432_s|)) (_ BitVec 1) (bvnot (|c432#22| state))) 
(define-fun |c432#24| ((state |c432_s|)) (_ BitVec 1) (bvand (|c432#18| state) (|c432#23| state))) 
(declare-fun |c432#25| (|c432_s|) (_ BitVec 1)) 
(define-fun |c432#26| ((state |c432_s|)) (_ BitVec 1) (bvnot (|c432#25| state))) 
(declare-fun |c432#27| (|c432_s|) (_ BitVec 1)) 
(define-fun |c432#28| ((state |c432_s|)) (_ BitVec 1) (bvand (|c432#26| state) (|c432#27| state))) 
(define-fun |c432#29| ((state |c432_s|)) (_ BitVec 1) (bvnot (|c432#28| state))) 
(define-fun |c432#30| ((state |c432_s|)) (_ BitVec 1) (bvand (|c432#24| state) (|c432#29| state))) 
(declare-fun |c432#31| (|c432_s|) (_ BitVec 1)) 
(define-fun |c432#32| ((state |c432_s|)) (_ BitVec 1) (bvnot (|c432#31| state))) 
(declare-fun |c432#33| (|c432_s|) (_ BitVec 1)) 
(define-fun |c432#34| ((state |c432_s|)) (_ BitVec 1) (bvand (|c432#32| state) (|c432#33| state))) 
(define-fun |c432#35| ((state |c432_s|)) (_ BitVec 1) (bvnot (|c432#34| state))) 
(define-fun |c432#36| ((state |c432_s|)) (_ BitVec 1) (bvand (|c432#30| state) (|c432#35| state))) 
(declare-fun |c432#37| (|c432_s|) (_ BitVec 1)) 
(define-fun |c432#38| ((state |c432_s|)) (_ BitVec 1) (bvnot (|c432#37| state))) 
(declare-fun |c432#39| (|c432_s|) (_ BitVec 1)) 
(define-fun |c432#40| ((state |c432_s|)) (_ BitVec 1) (bvand (|c432#38| state) (|c432#39| state))) 
(define-fun |c432#41| ((state |c432_s|)) (_ BitVec 1) (bvnot (|c432#40| state))) 
(define-fun |c432#42| ((state |c432_s|)) (_ BitVec 1) (bvand (|c432#36| state) (|c432#41| state))) 
(declare-fun |c432#43| (|c432_s|) (_ BitVec 1)) 
(define-fun |c432#44| ((state |c432_s|)) (_ BitVec 1) (bvnot (|c432#43| state))) 
(declare-fun |c432#45| (|c432_s|) (_ BitVec 1)) 
(define-fun |c432#46| ((state |c432_s|)) (_ BitVec 1) (bvand (|c432#44| state) (|c432#45| state))) 
(define-fun |c432#47| ((state |c432_s|)) (_ BitVec 1) (bvnot (|c432#46| state))) 
(define-fun |c432#48| ((state |c432_s|)) (_ BitVec 1) (bvand (|c432#42| state) (|c432#47| state))) 
(declare-fun |c432#49| (|c432_s|) (_ BitVec 1)) 
(define-fun |c432#50| ((state |c432_s|)) (_ BitVec 1) (bvnot (|c432#49| state))) 
(declare-fun |c432#51| (|c432_s|) (_ BitVec 1)) 
(define-fun |c432#52| ((state |c432_s|)) (_ BitVec 1) (bvand (|c432#50| state) (|c432#51| state))) 
(define-fun |c432#53| ((state |c432_s|)) (_ BitVec 1) (bvnot (|c432#52| state))) 
(define-fun |c432#54| ((state |c432_s|)) (_ BitVec 1) (bvand (|c432#48| state) (|c432#53| state))) 
(define-fun |c432#55| ((state |c432_s|)) (_ BitVec 1) (bvnot (ite (|c432#2| state) #b1 #b0))) 
(define-fun |c432#56| ((state |c432_s|)) (_ BitVec 1) (bvand (|c432#55| state) (ite (|c432#4| state) #b1 #b0))) 
(define-fun |c432#57| ((state |c432_s|)) (_ BitVec 1) (bvnot (|c432#56| state))) 
(define-fun |c432#58| ((state |c432_s|)) (_ BitVec 1) (bvand (|c432#54| state) (|c432#57| state))) 
(define-fun |c432#59| ((state |c432_s|)) (_ BitVec 1) (bvnot (|c432#58| state))) 

(define-fun |c432_n N223| ((state |c432_s|)) Bool (= ((_ extract 0 0) (|c432#59| state)) #b1))


(define-fun |c432_n N24| ((state |c432_s|)) Bool (= ((_ extract 0 0) (|c432#19| state)) #b1))
(declare-fun |c432#60| (|c432_s|) Bool) 


(define-fun |c432_n N27| ((state |c432_s|)) Bool (|c432#60| state))


(define-fun |c432_n N30| ((state |c432_s|)) Bool (= ((_ extract 0 0) (|c432#21| state)) #b1))
(define-fun |c432#61| ((state |c432_s|)) (_ BitVec 1) (bvxor (|c432#59| state) (|c432#14| state))) 
(declare-fun |c432#62| (|c432_s|) (_ BitVec 1)) 
(define-fun |c432#63| ((state |c432_s|)) (_ BitVec 1) (bvnot (|c432#12| state))) 
(define-fun |c432#64| ((state |c432_s|)) (_ BitVec 1) (bvor (|c432#62| state) (|c432#63| state))) 
(define-fun |c432#65| ((state |c432_s|)) (_ BitVec 1) (bvnot (|c432#64| state))) 
(define-fun |c432#66| ((state |c432_s|)) (_ BitVec 1) (bvand (|c432#61| state) (|c432#65| state))) 
(define-fun |c432#67| ((state |c432_s|)) (_ BitVec 1) (bvnot (|c432#66| state))) 
(define-fun |c432#68| ((state |c432_s|)) (_ BitVec 1) (bvxor (|c432#59| state) (|c432#17| state))) 
(define-fun |c432#69| ((state |c432_s|)) (_ BitVec 1) (bvnot (ite (|c432#9| state) #b1 #b0))) 
(define-fun |c432#70| ((state |c432_s|)) (_ BitVec 1) (bvor (ite (|c432#10| state) #b1 #b0) (|c432#69| state))) 
(define-fun |c432#71| ((state |c432_s|)) (_ BitVec 1) (bvnot (|c432#70| state))) 
(define-fun |c432#72| ((state |c432_s|)) (_ BitVec 1) (bvand (|c432#68| state) (|c432#71| state))) 
(define-fun |c432#73| ((state |c432_s|)) (_ BitVec 1) (bvnot (|c432#72| state))) 
(define-fun |c432#74| ((state |c432_s|)) (_ BitVec 1) (bvand (|c432#67| state) (|c432#73| state))) 
(define-fun |c432#75| ((state |c432_s|)) (_ BitVec 1) (bvxor (|c432#59| state) (|c432#23| state))) 
(declare-fun |c432#76| (|c432_s|) (_ BitVec 1)) 
(define-fun |c432#77| ((state |c432_s|)) (_ BitVec 1) (bvnot (|c432#21| state))) 
(define-fun |c432#78| ((state |c432_s|)) (_ BitVec 1) (bvor (|c432#76| state) (|c432#77| state))) 
(define-fun |c432#79| ((state |c432_s|)) (_ BitVec 1) (bvnot (|c432#78| state))) 
(define-fun |c432#80| ((state |c432_s|)) (_ BitVec 1) (bvand (|c432#75| state) (|c432#79| state))) 
(define-fun |c432#81| ((state |c432_s|)) (_ BitVec 1) (bvnot (|c432#80| state))) 
(define-fun |c432#82| ((state |c432_s|)) (_ BitVec 1) (bvand (|c432#74| state) (|c432#81| state))) 
(define-fun |c432#83| ((state |c432_s|)) (_ BitVec 1) (bvxor (|c432#59| state) (|c432#29| state))) 
(declare-fun |c432#84| (|c432_s|) (_ BitVec 1)) 
(define-fun |c432#85| ((state |c432_s|)) (_ BitVec 1) (bvnot (|c432#27| state))) 
(define-fun |c432#86| ((state |c432_s|)) (_ BitVec 1) (bvor (|c432#84| state) (|c432#85| state))) 
(define-fun |c432#87| ((state |c432_s|)) (_ BitVec 1) (bvnot (|c432#86| state))) 
(define-fun |c432#88| ((state |c432_s|)) (_ BitVec 1) (bvand (|c432#83| state) (|c432#87| state))) 
(define-fun |c432#89| ((state |c432_s|)) (_ BitVec 1) (bvnot (|c432#88| state))) 
(define-fun |c432#90| ((state |c432_s|)) (_ BitVec 1) (bvand (|c432#82| state) (|c432#89| state))) 
(define-fun |c432#91| ((state |c432_s|)) (_ BitVec 1) (bvxor (|c432#59| state) (|c432#35| state))) 
(declare-fun |c432#92| (|c432_s|) (_ BitVec 1)) 
(define-fun |c432#93| ((state |c432_s|)) (_ BitVec 1) (bvnot (|c432#33| state))) 
(define-fun |c432#94| ((state |c432_s|)) (_ BitVec 1) (bvor (|c432#92| state) (|c432#93| state))) 
(define-fun |c432#95| ((state |c432_s|)) (_ BitVec 1) (bvnot (|c432#94| state))) 
(define-fun |c432#96| ((state |c432_s|)) (_ BitVec 1) (bvand (|c432#91| state) (|c432#95| state))) 
(define-fun |c432#97| ((state |c432_s|)) (_ BitVec 1) (bvnot (|c432#96| state))) 
(define-fun |c432#98| ((state |c432_s|)) (_ BitVec 1) (bvand (|c432#90| state) (|c432#97| state))) 
(define-fun |c432#99| ((state |c432_s|)) (_ BitVec 1) (bvxor (|c432#59| state) (|c432#41| state))) 
(declare-fun |c432#100| (|c432_s|) (_ BitVec 1)) 
(define-fun |c432#101| ((state |c432_s|)) (_ BitVec 1) (bvnot (|c432#39| state))) 
(define-fun |c432#102| ((state |c432_s|)) (_ BitVec 1) (bvor (|c432#100| state) (|c432#101| state))) 
(define-fun |c432#103| ((state |c432_s|)) (_ BitVec 1) (bvnot (|c432#102| state))) 
(define-fun |c432#104| ((state |c432_s|)) (_ BitVec 1) (bvand (|c432#99| state) (|c432#103| state))) 
(define-fun |c432#105| ((state |c432_s|)) (_ BitVec 1) (bvnot (|c432#104| state))) 
(define-fun |c432#106| ((state |c432_s|)) (_ BitVec 1) (bvand (|c432#98| state) (|c432#105| state))) 
(define-fun |c432#107| ((state |c432_s|)) (_ BitVec 1) (bvxor (|c432#59| state) (|c432#47| state))) 
(declare-fun |c432#108| (|c432_s|) (_ BitVec 1)) 
(define-fun |c432#109| ((state |c432_s|)) (_ BitVec 1) (bvnot (|c432#45| state))) 
(define-fun |c432#110| ((state |c432_s|)) (_ BitVec 1) (bvor (|c432#108| state) (|c432#109| state))) 
(define-fun |c432#111| ((state |c432_s|)) (_ BitVec 1) (bvnot (|c432#110| state))) 
(define-fun |c432#112| ((state |c432_s|)) (_ BitVec 1) (bvand (|c432#107| state) (|c432#111| state))) 
(define-fun |c432#113| ((state |c432_s|)) (_ BitVec 1) (bvnot (|c432#112| state))) 
(define-fun |c432#114| ((state |c432_s|)) (_ BitVec 1) (bvand (|c432#106| state) (|c432#113| state))) 
(define-fun |c432#115| ((state |c432_s|)) (_ BitVec 1) (bvxor (|c432#59| state) (|c432#53| state))) 
(declare-fun |c432#116| (|c432_s|) (_ BitVec 1)) 
(define-fun |c432#117| ((state |c432_s|)) (_ BitVec 1) (bvnot (|c432#51| state))) 
(define-fun |c432#118| ((state |c432_s|)) (_ BitVec 1) (bvor (|c432#116| state) (|c432#117| state))) 
(define-fun |c432#119| ((state |c432_s|)) (_ BitVec 1) (bvnot (|c432#118| state))) 
(define-fun |c432#120| ((state |c432_s|)) (_ BitVec 1) (bvand (|c432#115| state) (|c432#119| state))) 
(define-fun |c432#121| ((state |c432_s|)) (_ BitVec 1) (bvnot (|c432#120| state))) 
(define-fun |c432#122| ((state |c432_s|)) (_ BitVec 1) (bvand (|c432#114| state) (|c432#121| state))) 
(define-fun |c432#123| ((state |c432_s|)) (_ BitVec 1) (bvxor (|c432#59| state) (|c432#57| state))) 
(define-fun |c432#124| ((state |c432_s|)) (_ BitVec 1) (bvnot (ite (|c432#4| state) #b1 #b0))) 
(define-fun |c432#125| ((state |c432_s|)) (_ BitVec 1) (bvor (ite (|c432#6| state) #b1 #b0) (|c432#124| state))) 
(define-fun |c432#126| ((state |c432_s|)) (_ BitVec 1) (bvnot (|c432#125| state))) 
(define-fun |c432#127| ((state |c432_s|)) (_ BitVec 1) (bvand (|c432#123| state) (|c432#126| state))) 
(define-fun |c432#128| ((state |c432_s|)) (_ BitVec 1) (bvnot (|c432#127| state))) 
(define-fun |c432#129| ((state |c432_s|)) (_ BitVec 1) (bvand (|c432#122| state) (|c432#128| state))) 
(define-fun |c432#130| ((state |c432_s|)) (_ BitVec 1) (bvnot (|c432#129| state))) 

(define-fun |c432_n N329| ((state |c432_s|)) Bool (= ((_ extract 0 0) (|c432#130| state)) #b1))


(define-fun |c432_n N34| ((state |c432_s|)) Bool (= ((_ extract 0 0) (|c432#76| state)) #b1))


(define-fun |c432_n N37| ((state |c432_s|)) Bool (= ((_ extract 0 0) (|c432#25| state)) #b1))
(define-fun |c432#131| ((state |c432_s|)) (_ BitVec 1) (bvxor (|c432#130| state) (|c432#67| state))) 
(define-fun |c432#132| ((state |c432_s|)) (_ BitVec 1) (bvor (ite (|c432#8| state) #b1 #b0) (|c432#63| state))) 
(define-fun |c432#133| ((state |c432_s|)) (_ BitVec 1) (bvnot (|c432#132| state))) 
(define-fun |c432#134| ((state |c432_s|)) (_ BitVec 1) (bvand (|c432#61| state) (|c432#133| state))) 
(define-fun |c432#135| ((state |c432_s|)) (_ BitVec 1) (bvand (|c432#131| state) (|c432#134| state))) 
(define-fun |c432#136| ((state |c432_s|)) (_ BitVec 1) (bvnot (|c432#135| state))) 
(define-fun |c432#137| ((state |c432_s|)) (_ BitVec 1) (bvxor (|c432#130| state) (|c432#73| state))) 
(define-fun |c432#138| ((state |c432_s|)) (_ BitVec 1) (bvor (ite (|c432#60| state) #b1 #b0) (|c432#69| state))) 
(define-fun |c432#139| ((state |c432_s|)) (_ BitVec 1) (bvnot (|c432#138| state))) 
(define-fun |c432#140| ((state |c432_s|)) (_ BitVec 1) (bvand (|c432#68| state) (|c432#139| state))) 
(define-fun |c432#141| ((state |c432_s|)) (_ BitVec 1) (bvand (|c432#137| state) (|c432#140| state))) 
(define-fun |c432#142| ((state |c432_s|)) (_ BitVec 1) (bvnot (|c432#141| state))) 
(define-fun |c432#143| ((state |c432_s|)) (_ BitVec 1) (bvand (|c432#136| state) (|c432#142| state))) 
(define-fun |c432#144| ((state |c432_s|)) (_ BitVec 1) (bvxor (|c432#130| state) (|c432#81| state))) 
(declare-fun |c432#145| (|c432_s|) (_ BitVec 1)) 
(define-fun |c432#146| ((state |c432_s|)) (_ BitVec 1) (bvor (|c432#145| state) (|c432#77| state))) 
(define-fun |c432#147| ((state |c432_s|)) (_ BitVec 1) (bvnot (|c432#146| state))) 
(define-fun |c432#148| ((state |c432_s|)) (_ BitVec 1) (bvand (|c432#75| state) (|c432#147| state))) 
(define-fun |c432#149| ((state |c432_s|)) (_ BitVec 1) (bvand (|c432#144| state) (|c432#148| state))) 
(define-fun |c432#150| ((state |c432_s|)) (_ BitVec 1) (bvnot (|c432#149| state))) 
(define-fun |c432#151| ((state |c432_s|)) (_ BitVec 1) (bvand (|c432#143| state) (|c432#150| state))) 
(define-fun |c432#152| ((state |c432_s|)) (_ BitVec 1) (bvxor (|c432#130| state) (|c432#89| state))) 
(declare-fun |c432#153| (|c432_s|) (_ BitVec 1)) 
(define-fun |c432#154| ((state |c432_s|)) (_ BitVec 1) (bvor (|c432#153| state) (|c432#85| state))) 
(define-fun |c432#155| ((state |c432_s|)) (_ BitVec 1) (bvnot (|c432#154| state))) 
(define-fun |c432#156| ((state |c432_s|)) (_ BitVec 1) (bvand (|c432#83| state) (|c432#155| state))) 
(define-fun |c432#157| ((state |c432_s|)) (_ BitVec 1) (bvand (|c432#152| state) (|c432#156| state))) 
(define-fun |c432#158| ((state |c432_s|)) (_ BitVec 1) (bvnot (|c432#157| state))) 
(define-fun |c432#159| ((state |c432_s|)) (_ BitVec 1) (bvand (|c432#151| state) (|c432#158| state))) 
(define-fun |c432#160| ((state |c432_s|)) (_ BitVec 1) (bvxor (|c432#130| state) (|c432#97| state))) 
(declare-fun |c432#161| (|c432_s|) (_ BitVec 1)) 
(define-fun |c432#162| ((state |c432_s|)) (_ BitVec 1) (bvor (|c432#161| state) (|c432#93| state))) 
(define-fun |c432#163| ((state |c432_s|)) (_ BitVec 1) (bvnot (|c432#162| state))) 
(define-fun |c432#164| ((state |c432_s|)) (_ BitVec 1) (bvand (|c432#91| state) (|c432#163| state))) 
(define-fun |c432#165| ((state |c432_s|)) (_ BitVec 1) (bvand (|c432#160| state) (|c432#164| state))) 
(define-fun |c432#166| ((state |c432_s|)) (_ BitVec 1) (bvnot (|c432#165| state))) 
(define-fun |c432#167| ((state |c432_s|)) (_ BitVec 1) (bvand (|c432#159| state) (|c432#166| state))) 
(define-fun |c432#168| ((state |c432_s|)) (_ BitVec 1) (bvxor (|c432#130| state) (|c432#105| state))) 
(declare-fun |c432#169| (|c432_s|) (_ BitVec 1)) 
(define-fun |c432#170| ((state |c432_s|)) (_ BitVec 1) (bvor (|c432#169| state) (|c432#101| state))) 
(define-fun |c432#171| ((state |c432_s|)) (_ BitVec 1) (bvnot (|c432#170| state))) 
(define-fun |c432#172| ((state |c432_s|)) (_ BitVec 1) (bvand (|c432#99| state) (|c432#171| state))) 
(define-fun |c432#173| ((state |c432_s|)) (_ BitVec 1) (bvand (|c432#168| state) (|c432#172| state))) 
(define-fun |c432#174| ((state |c432_s|)) (_ BitVec 1) (bvnot (|c432#173| state))) 
(define-fun |c432#175| ((state |c432_s|)) (_ BitVec 1) (bvand (|c432#167| state) (|c432#174| state))) 
(define-fun |c432#176| ((state |c432_s|)) (_ BitVec 1) (bvxor (|c432#130| state) (|c432#113| state))) 
(declare-fun |c432#177| (|c432_s|) (_ BitVec 1)) 
(define-fun |c432#178| ((state |c432_s|)) (_ BitVec 1) (bvor (|c432#177| state) (|c432#109| state))) 
(define-fun |c432#179| ((state |c432_s|)) (_ BitVec 1) (bvnot (|c432#178| state))) 
(define-fun |c432#180| ((state |c432_s|)) (_ BitVec 1) (bvand (|c432#107| state) (|c432#179| state))) 
(define-fun |c432#181| ((state |c432_s|)) (_ BitVec 1) (bvand (|c432#176| state) (|c432#180| state))) 
(define-fun |c432#182| ((state |c432_s|)) (_ BitVec 1) (bvnot (|c432#181| state))) 
(define-fun |c432#183| ((state |c432_s|)) (_ BitVec 1) (bvand (|c432#175| state) (|c432#182| state))) 
(define-fun |c432#184| ((state |c432_s|)) (_ BitVec 1) (bvxor (|c432#130| state) (|c432#121| state))) 
(define-fun |c432#185| ((state |c432_s|)) (_ BitVec 1) (bvor (ite (|c432#3| state) #b1 #b0) (|c432#117| state))) 
(define-fun |c432#186| ((state |c432_s|)) (_ BitVec 1) (bvnot (|c432#185| state))) 
(define-fun |c432#187| ((state |c432_s|)) (_ BitVec 1) (bvand (|c432#115| state) (|c432#186| state))) 
(define-fun |c432#188| ((state |c432_s|)) (_ BitVec 1) (bvand (|c432#184| state) (|c432#187| state))) 
(define-fun |c432#189| ((state |c432_s|)) (_ BitVec 1) (bvnot (|c432#188| state))) 
(define-fun |c432#190| ((state |c432_s|)) (_ BitVec 1) (bvand (|c432#183| state) (|c432#189| state))) 
(define-fun |c432#191| ((state |c432_s|)) (_ BitVec 1) (bvxor (|c432#130| state) (|c432#128| state))) 
(define-fun |c432#192| ((state |c432_s|)) (_ BitVec 1) (bvor (ite (|c432#7| state) #b1 #b0) (|c432#124| state))) 
(define-fun |c432#193| ((state |c432_s|)) (_ BitVec 1) (bvnot (|c432#192| state))) 
(define-fun |c432#194| ((state |c432_s|)) (_ BitVec 1) (bvand (|c432#123| state) (|c432#193| state))) 
(define-fun |c432#195| ((state |c432_s|)) (_ BitVec 1) (bvand (|c432#191| state) (|c432#194| state))) 
(define-fun |c432#196| ((state |c432_s|)) (_ BitVec 1) (bvnot (|c432#195| state))) 
(define-fun |c432#197| ((state |c432_s|)) (_ BitVec 1) (bvand (|c432#190| state) (|c432#196| state))) 
(define-fun |c432#198| ((state |c432_s|)) (_ BitVec 1) (bvnot (|c432#197| state))) 

(define-fun |c432_n N370| ((state |c432_s|)) Bool (= ((_ extract 0 0) (|c432#198| state)) #b1))


(define-fun |c432_n N4| ((state |c432_s|)) Bool (= ((_ extract 0 0) (|c432#12| state)) #b1))


(define-fun |c432_n N40| ((state |c432_s|)) Bool (= ((_ extract 0 0) (|c432#145| state)) #b1))
(define-fun |c432#199| ((state |c432_s|)) (_ BitVec 1) (bvand (ite (|c432#1| state) #b1 #b0) (|c432#59| state))) 
(define-fun |c432#200| ((state |c432_s|)) (_ BitVec 1) (bvnot (|c432#199| state))) 
(define-fun |c432#201| ((state |c432_s|)) (_ BitVec 1) (bvand (|c432#12| state) (|c432#200| state))) 
(define-fun |c432#202| ((state |c432_s|)) (_ BitVec 1) (bvand (|c432#62| state) (|c432#130| state))) 
(define-fun |c432#203| ((state |c432_s|)) (_ BitVec 1) (bvnot (|c432#202| state))) 
(define-fun |c432#204| ((state |c432_s|)) (_ BitVec 1) (bvand (|c432#201| state) (|c432#203| state))) 
(define-fun |c432#205| ((state |c432_s|)) (_ BitVec 1) (bvand (ite (|c432#8| state) #b1 #b0) (|c432#198| state))) 
(define-fun |c432#206| ((state |c432_s|)) (_ BitVec 1) (bvnot (|c432#205| state))) 
(define-fun |c432#207| ((state |c432_s|)) (_ BitVec 1) (bvand (|c432#204| state) (|c432#206| state))) 
(define-fun |c432#208| ((state |c432_s|)) (_ BitVec 1) (bvand (|c432#59| state) (ite (|c432#5| state) #b1 #b0))) 
(define-fun |c432#209| ((state |c432_s|)) (_ BitVec 1) (bvnot (|c432#208| state))) 
(define-fun |c432#210| ((state |c432_s|)) (_ BitVec 1) (bvand (|c432#130| state) (ite (|c432#10| state) #b1 #b0))) 
(define-fun |c432#211| ((state |c432_s|)) (_ BitVec 1) (bvnot (|c432#210| state))) 
(define-fun |c432#212| ((state |c432_s|)) (_ BitVec 1) (bvand (|c432#209| state) (|c432#211| state))) 
(define-fun |c432#213| ((state |c432_s|)) (_ BitVec 1) (bvand (|c432#198| state) (ite (|c432#60| state) #b1 #b0))) 
(define-fun |c432#214| ((state |c432_s|)) (_ BitVec 1) (bvnot (|c432#213| state))) 
(define-fun |c432#215| ((state |c432_s|)) (_ BitVec 1) (bvand (|c432#212| state) (|c432#214| state))) 
(define-fun |c432#216| ((state |c432_s|)) (_ BitVec 1) (bvand (|c432#215| state) (ite (|c432#9| state) #b1 #b0))) 
(define-fun |c432#217| ((state |c432_s|)) (_ BitVec 1) (bvnot (|c432#216| state))) 
(define-fun |c432#218| ((state |c432_s|)) (_ BitVec 1) (bvand (|c432#59| state) (|c432#19| state))) 
(define-fun |c432#219| ((state |c432_s|)) (_ BitVec 1) (bvnot (|c432#218| state))) 
(define-fun |c432#220| ((state |c432_s|)) (_ BitVec 1) (bvand (|c432#130| state) (|c432#76| state))) 
(define-fun |c432#221| ((state |c432_s|)) (_ BitVec 1) (bvnot (|c432#220| state))) 
(define-fun |c432#222| ((state |c432_s|)) (_ BitVec 1) (bvand (|c432#219| state) (|c432#221| state))) 
(define-fun |c432#223| ((state |c432_s|)) (_ BitVec 1) (bvand (|c432#198| state) (|c432#145| state))) 
(define-fun |c432#224| ((state |c432_s|)) (_ BitVec 1) (bvnot (|c432#223| state))) 
(define-fun |c432#225| ((state |c432_s|)) (_ BitVec 1) (bvand (|c432#222| state) (|c432#224| state))) 
(define-fun |c432#226| ((state |c432_s|)) (_ BitVec 1) (bvand (|c432#225| state) (|c432#21| state))) 
(define-fun |c432#227| ((state |c432_s|)) (_ BitVec 1) (bvnot (|c432#226| state))) 
(define-fun |c432#228| ((state |c432_s|)) (_ BitVec 1) (bvand (|c432#217| state) (|c432#227| state))) 
(define-fun |c432#229| ((state |c432_s|)) (_ BitVec 1) (bvand (|c432#59| state) (|c432#25| state))) 
(define-fun |c432#230| ((state |c432_s|)) (_ BitVec 1) (bvnot (|c432#229| state))) 
(define-fun |c432#231| ((state |c432_s|)) (_ BitVec 1) (bvand (|c432#130| state) (|c432#84| state))) 
(define-fun |c432#232| ((state |c432_s|)) (_ BitVec 1) (bvnot (|c432#231| state))) 
(define-fun |c432#233| ((state |c432_s|)) (_ BitVec 1) (bvand (|c432#230| state) (|c432#232| state))) 
(define-fun |c432#234| ((state |c432_s|)) (_ BitVec 1) (bvand (|c432#198| state) (|c432#153| state))) 
(define-fun |c432#235| ((state |c432_s|)) (_ BitVec 1) (bvnot (|c432#234| state))) 
(define-fun |c432#236| ((state |c432_s|)) (_ BitVec 1) (bvand (|c432#233| state) (|c432#235| state))) 
(define-fun |c432#237| ((state |c432_s|)) (_ BitVec 1) (bvand (|c432#236| state) (|c432#27| state))) 
(define-fun |c432#238| ((state |c432_s|)) (_ BitVec 1) (bvnot (|c432#237| state))) 
(define-fun |c432#239| ((state |c432_s|)) (_ BitVec 1) (bvand (|c432#228| state) (|c432#238| state))) 
(define-fun |c432#240| ((state |c432_s|)) (_ BitVec 1) (bvand (|c432#59| state) (|c432#31| state))) 
(define-fun |c432#241| ((state |c432_s|)) (_ BitVec 1) (bvnot (|c432#240| state))) 
(define-fun |c432#242| ((state |c432_s|)) (_ BitVec 1) (bvand (|c432#130| state) (|c432#92| state))) 
(define-fun |c432#243| ((state |c432_s|)) (_ BitVec 1) (bvnot (|c432#242| state))) 
(define-fun |c432#244| ((state |c432_s|)) (_ BitVec 1) (bvand (|c432#241| state) (|c432#243| state))) 
(define-fun |c432#245| ((state |c432_s|)) (_ BitVec 1) (bvand (|c432#198| state) (|c432#161| state))) 
(define-fun |c432#246| ((state |c432_s|)) (_ BitVec 1) (bvnot (|c432#245| state))) 
(define-fun |c432#247| ((state |c432_s|)) (_ BitVec 1) (bvand (|c432#244| state) (|c432#246| state))) 
(define-fun |c432#248| ((state |c432_s|)) (_ BitVec 1) (bvand (|c432#247| state) (|c432#33| state))) 
(define-fun |c432#249| ((state |c432_s|)) (_ BitVec 1) (bvnot (|c432#248| state))) 
(define-fun |c432#250| ((state |c432_s|)) (_ BitVec 1) (bvand (|c432#239| state) (|c432#249| state))) 
(define-fun |c432#251| ((state |c432_s|)) (_ BitVec 1) (bvand (|c432#59| state) (|c432#37| state))) 
(define-fun |c432#252| ((state |c432_s|)) (_ BitVec 1) (bvnot (|c432#251| state))) 
(define-fun |c432#253| ((state |c432_s|)) (_ BitVec 1) (bvand (|c432#130| state) (|c432#100| state))) 
(define-fun |c432#254| ((state |c432_s|)) (_ BitVec 1) (bvnot (|c432#253| state))) 
(define-fun |c432#255| ((state |c432_s|)) (_ BitVec 1) (bvand (|c432#252| state) (|c432#254| state))) 
(define-fun |c432#256| ((state |c432_s|)) (_ BitVec 1) (bvand (|c432#198| state) (|c432#169| state))) 
(define-fun |c432#257| ((state |c432_s|)) (_ BitVec 1) (bvnot (|c432#256| state))) 
(define-fun |c432#258| ((state |c432_s|)) (_ BitVec 1) (bvand (|c432#255| state) (|c432#257| state))) 
(define-fun |c432#259| ((state |c432_s|)) (_ BitVec 1) (bvand (|c432#258| state) (|c432#39| state))) 
(define-fun |c432#260| ((state |c432_s|)) (_ BitVec 1) (bvnot (|c432#259| state))) 
(define-fun |c432#261| ((state |c432_s|)) (_ BitVec 1) (bvand (|c432#250| state) (|c432#260| state))) 
(define-fun |c432#262| ((state |c432_s|)) (_ BitVec 1) (bvand (|c432#59| state) (|c432#43| state))) 
(define-fun |c432#263| ((state |c432_s|)) (_ BitVec 1) (bvnot (|c432#262| state))) 
(define-fun |c432#264| ((state |c432_s|)) (_ BitVec 1) (bvand (|c432#130| state) (|c432#108| state))) 
(define-fun |c432#265| ((state |c432_s|)) (_ BitVec 1) (bvnot (|c432#264| state))) 
(define-fun |c432#266| ((state |c432_s|)) (_ BitVec 1) (bvand (|c432#263| state) (|c432#265| state))) 
(define-fun |c432#267| ((state |c432_s|)) (_ BitVec 1) (bvand (|c432#198| state) (|c432#177| state))) 
(define-fun |c432#268| ((state |c432_s|)) (_ BitVec 1) (bvnot (|c432#267| state))) 
(define-fun |c432#269| ((state |c432_s|)) (_ BitVec 1) (bvand (|c432#266| state) (|c432#268| state))) 
(define-fun |c432#270| ((state |c432_s|)) (_ BitVec 1) (bvand (|c432#269| state) (|c432#45| state))) 
(define-fun |c432#271| ((state |c432_s|)) (_ BitVec 1) (bvnot (|c432#270| state))) 
(define-fun |c432#272| ((state |c432_s|)) (_ BitVec 1) (bvand (|c432#261| state) (|c432#271| state))) 
(define-fun |c432#273| ((state |c432_s|)) (_ BitVec 1) (bvand (|c432#59| state) (|c432#49| state))) 
(define-fun |c432#274| ((state |c432_s|)) (_ BitVec 1) (bvnot (|c432#273| state))) 
(define-fun |c432#275| ((state |c432_s|)) (_ BitVec 1) (bvand (|c432#130| state) (|c432#116| state))) 
(define-fun |c432#276| ((state |c432_s|)) (_ BitVec 1) (bvnot (|c432#275| state))) 
(define-fun |c432#277| ((state |c432_s|)) (_ BitVec 1) (bvand (|c432#274| state) (|c432#276| state))) 
(define-fun |c432#278| ((state |c432_s|)) (_ BitVec 1) (bvand (|c432#198| state) (ite (|c432#3| state) #b1 #b0))) 
(define-fun |c432#279| ((state |c432_s|)) (_ BitVec 1) (bvnot (|c432#278| state))) 
(define-fun |c432#280| ((state |c432_s|)) (_ BitVec 1) (bvand (|c432#277| state) (|c432#279| state))) 
(define-fun |c432#281| ((state |c432_s|)) (_ BitVec 1) (bvand (|c432#280| state) (|c432#51| state))) 
(define-fun |c432#282| ((state |c432_s|)) (_ BitVec 1) (bvnot (|c432#281| state))) 
(define-fun |c432#283| ((state |c432_s|)) (_ BitVec 1) (bvand (|c432#272| state) (|c432#282| state))) 
(define-fun |c432#284| ((state |c432_s|)) (_ BitVec 1) (bvand (|c432#59| state) (ite (|c432#2| state) #b1 #b0))) 
(define-fun |c432#285| ((state |c432_s|)) (_ BitVec 1) (bvnot (|c432#284| state))) 
(define-fun |c432#286| ((state |c432_s|)) (_ BitVec 1) (bvand (|c432#130| state) (ite (|c432#6| state) #b1 #b0))) 
(define-fun |c432#287| ((state |c432_s|)) (_ BitVec 1) (bvnot (|c432#286| state))) 
(define-fun |c432#288| ((state |c432_s|)) (_ BitVec 1) (bvand (|c432#285| state) (|c432#287| state))) 
(define-fun |c432#289| ((state |c432_s|)) (_ BitVec 1) (bvand (|c432#198| state) (ite (|c432#7| state) #b1 #b0))) 
(define-fun |c432#290| ((state |c432_s|)) (_ BitVec 1) (bvnot (|c432#289| state))) 
(define-fun |c432#291| ((state |c432_s|)) (_ BitVec 1) (bvand (|c432#288| state) (|c432#290| state))) 
(define-fun |c432#292| ((state |c432_s|)) (_ BitVec 1) (bvand (|c432#291| state) (ite (|c432#4| state) #b1 #b0))) 
(define-fun |c432#293| ((state |c432_s|)) (_ BitVec 1) (bvnot (|c432#292| state))) 
(define-fun |c432#294| ((state |c432_s|)) (_ BitVec 1) (bvand (|c432#283| state) (|c432#293| state))) 
(define-fun |c432#295| ((state |c432_s|)) (_ BitVec 1) (bvor (|c432#207| state) (|c432#294| state))) 
(define-fun |c432#296| ((state |c432_s|)) (_ BitVec 1) (bvnot (|c432#295| state))) 

(define-fun |c432_n N421| ((state |c432_s|)) Bool (= ((_ extract 0 0) (|c432#296| state)) #b1))


(define-fun |c432_n N43| ((state |c432_s|)) Bool (= ((_ extract 0 0) (|c432#27| state)) #b1))
(define-fun |c432#297| ((state |c432_s|)) (_ BitVec 1) (bvand (|c432#227| state) (|c432#237| state))) 
(define-fun |c432#298| ((state |c432_s|)) (_ BitVec 1) (bvnot (|c432#297| state))) 
(define-fun |c432#299| ((state |c432_s|)) (_ BitVec 1) (bvand (|c432#228| state) (|c432#298| state))) 
(define-fun |c432#300| ((state |c432_s|)) (_ BitVec 1) (bvand (|c432#299| state) (|c432#249| state))) 
(define-fun |c432#301| ((state |c432_s|)) (_ BitVec 1) (bvnot (|c432#300| state))) 

(define-fun |c432_n N430| ((state |c432_s|)) Bool (= ((_ extract 0 0) (|c432#301| state)) #b1))
(define-fun |c432#302| ((state |c432_s|)) (_ BitVec 1) (bvand (|c432#227| state) (|c432#238| state))) 
(define-fun |c432#303| ((state |c432_s|)) (_ BitVec 1) (bvand (|c432#302| state) (|c432#259| state))) 
(define-fun |c432#304| ((state |c432_s|)) (_ BitVec 1) (bvand (|c432#303| state) (|c432#249| state))) 
(define-fun |c432#305| ((state |c432_s|)) (_ BitVec 1) (bvnot (|c432#304| state))) 
(define-fun |c432#306| ((state |c432_s|)) (_ BitVec 1) (bvand (|c432#228| state) (|c432#305| state))) 
(define-fun |c432#307| ((state |c432_s|)) (_ BitVec 1) (bvand (|c432#249| state) (|c432#238| state))) 
(define-fun |c432#308| ((state |c432_s|)) (_ BitVec 1) (bvand (|c432#307| state) (|c432#270| state))) 
(define-fun |c432#309| ((state |c432_s|)) (_ BitVec 1) (bvnot (|c432#308| state))) 
(define-fun |c432#310| ((state |c432_s|)) (_ BitVec 1) (bvand (|c432#306| state) (|c432#309| state))) 
(define-fun |c432#311| ((state |c432_s|)) (_ BitVec 1) (bvnot (|c432#310| state))) 

(define-fun |c432_n N431| ((state |c432_s|)) Bool (= ((_ extract 0 0) (|c432#311| state)) #b1))
(define-fun |c432#312| ((state |c432_s|)) (_ BitVec 1) (bvand (|c432#217| state) (|c432#298| state))) 
(define-fun |c432#313| ((state |c432_s|)) (_ BitVec 1) (bvand (|c432#312| state) (|c432#305| state))) 
(define-fun |c432#314| ((state |c432_s|)) (_ BitVec 1) (bvand (|c432#302| state) (|c432#271| state))) 
(define-fun |c432#315| ((state |c432_s|)) (_ BitVec 1) (bvand (|c432#314| state) (|c432#281| state))) 
(define-fun |c432#316| ((state |c432_s|)) (_ BitVec 1) (bvnot (|c432#315| state))) 
(define-fun |c432#317| ((state |c432_s|)) (_ BitVec 1) (bvand (|c432#313| state) (|c432#316| state))) 
(define-fun |c432#318| ((state |c432_s|)) (_ BitVec 1) (bvnot (|c432#317| state))) 

(define-fun |c432_n N432| ((state |c432_s|)) Bool (= ((_ extract 0 0) (|c432#318| state)) #b1))


(define-fun |c432_n N47| ((state |c432_s|)) Bool (= ((_ extract 0 0) (|c432#84| state)) #b1))


(define-fun |c432_n N50| ((state |c432_s|)) Bool (= ((_ extract 0 0) (|c432#31| state)) #b1))


(define-fun |c432_n N53| ((state |c432_s|)) Bool (= ((_ extract 0 0) (|c432#153| state)) #b1))


(define-fun |c432_n N56| ((state |c432_s|)) Bool (= ((_ extract 0 0) (|c432#33| state)) #b1))


(define-fun |c432_n N60| ((state |c432_s|)) Bool (= ((_ extract 0 0) (|c432#92| state)) #b1))


(define-fun |c432_n N63| ((state |c432_s|)) Bool (= ((_ extract 0 0) (|c432#37| state)) #b1))


(define-fun |c432_n N66| ((state |c432_s|)) Bool (= ((_ extract 0 0) (|c432#161| state)) #b1))


(define-fun |c432_n N69| ((state |c432_s|)) Bool (= ((_ extract 0 0) (|c432#39| state)) #b1))


(define-fun |c432_n N73| ((state |c432_s|)) Bool (= ((_ extract 0 0) (|c432#100| state)) #b1))


(define-fun |c432_n N76| ((state |c432_s|)) Bool (= ((_ extract 0 0) (|c432#43| state)) #b1))


(define-fun |c432_n N79| ((state |c432_s|)) Bool (= ((_ extract 0 0) (|c432#169| state)) #b1))


(define-fun |c432_n N8| ((state |c432_s|)) Bool (= ((_ extract 0 0) (|c432#62| state)) #b1))


(define-fun |c432_n N82| ((state |c432_s|)) Bool (= ((_ extract 0 0) (|c432#45| state)) #b1))


(define-fun |c432_n N86| ((state |c432_s|)) Bool (= ((_ extract 0 0) (|c432#108| state)) #b1))


(define-fun |c432_n N89| ((state |c432_s|)) Bool (= ((_ extract 0 0) (|c432#49| state)) #b1))


(define-fun |c432_n N92| ((state |c432_s|)) Bool (= ((_ extract 0 0) (|c432#177| state)) #b1))


(define-fun |c432_n N95| ((state |c432_s|)) Bool (= ((_ extract 0 0) (|c432#51| state)) #b1))


(define-fun |c432_n N99| ((state |c432_s|)) Bool (= ((_ extract 0 0) (|c432#116| state)) #b1))
(define-fun |c432_a| ((state |c432_s|)) Bool true)
(define-fun |c432_u| ((state |c432_s|)) Bool true)
(define-fun |c432_i| ((state |c432_s|)) Bool true)
(define-fun |c432_h| ((state |c432_s|)) Bool true)
(define-fun |c432_t| ((state |c432_s|) (next_state |c432_s|)) Bool true) 


